Minimize
 obj: - 8 y(2) - 3 y(3) - 8 y(7) - 6 y(8) + 27 x(0) + 2 y(0) + 5 y(5) - 10 y(9)
      + 92 x(1) + 10 y(4) + 64 x(2) - 2 y(6) + 116 x(3) - 30 x(4) - 182 x(5)
      - 10 y(1) - 82 x(6) - 33 x(7) - 86 x(8) + 191 x(9) 
Subject To
 c1:  6 y(2) + 6 y(3) + 12 y(7) + 4 y(8) + 15 x(0) <= 75
 c2:  9 y(2) + 16 y(3) + 3 y(8) + 17 y(0) + 13 y(5) + 13 y(9) + 5 x(1) <= 93
 c3:  15 y(9) + 3 y(4) + 10 x(2) <= 95
 c4:  10 y(8) + 2 y(0) + 19 y(4) + 8 y(6) + 8 x(3) <= 69
 c5:  9 y(3) + 8 y(7) + 13 y(6) + 13 x(4) <= 96
 c6:  4 y(0) + 18 x(5) <= 83
 c7:  14 y(7) + 20 y(8) + 2 y(5) + y(1) + 6 x(6) <= 78
 c8:  3 y(2) + 19 y(8) + 16 y(0) + 7 y(5) + 7 x(7) <= 88
 c9:  18 y(3) + 7 y(0) + 9 y(5) + 13 x(8) <= 53
 c10: 7 y(2) + 19 y(9) + 9 y(6) + 13 x(9) <= 78
 c11: 5 y(2) + 14 y(3) + 7 y(0) + 18 y(9) + 12 y(4) + 10 y(6) + 9 y(1) <= 73
 c12: 14 y(2) + 14 y(3) + 18 y(7) + 3 y(8) - y(6) + 6 y(1) <= 100
 c13: 4 y(2) + 12 y(8) + 19 y(0) - y(9) + 17 y(6) <= 99
 c14: 15 y(7) + 6 y(8) + 10 y(0) + 16 y(5) + 20 y(9) <= 55
 c15: 16 y(2) + 8 y(3) + 8 y(7) + 14 y(5) + 5 y(4) <= 51
 c16: 3 y(3) + 11 y(9) + 17 y(6) <= 95
 c17: - y(2) + 14 y(7) <= 86
 c18: 14 y(8) + 2 y(1) <= 96
 c19: 12 y(2) + 9 y(3) + 10 y(7) + 13 y(8) + 13 y(5) + 13 y(9) + 19 y(4) <= 73
 c20: x(0) + x(1) + x(2) + x(3) + x(4) + x(5) + x(6) + x(7) + x(8) + x(9) <= 3
 c21: y(2) + 8 y(3) - 8 y(7) + y(8) + 112 x(0) - 4 y(0) - y(5) - 5 y(9)
      + 51 x(1) - 7 y(4) + 163 x(2) + 7 y(6) - 59 x(3) + 113 x(4) + 159 x(5)
      + 4 y(1) - 151 x(6) + 126 x(7) - 90 x(8) + 95 x(9) = 0
Bounds
 0 <= x(0) <= 1
 0 <= x(1) <= 1
 0 <= x(2) <= 1
 0 <= x(3) <= 1
 0 <= x(4) <= 1
 0 <= x(5) <= 1
 0 <= x(6) <= 1
 0 <= x(7) <= 1
 0 <= x(8) <= 1
 0 <= x(9) <= 1
Binaries
 x(0)  x(1)  x(2)  x(3)  x(4)  x(5)  x(6)  x(7)  x(8)  x(9) 
End
